NAME : XML100_3154_14
DIMENSION : 101
NB_CLUSTERS : 31
CLUSTERING_ALG : KMeans
CLUSTERING_PARAMS : k(36)
CLUSTERS
1 0
2 11 28 38 64 70
3 35 41
4 55 68
5 27 39 43
6 17 40 93
7 6 10 49 89
8 1 8 19 22 77 80
9 25 71 75 82 91
10 4 46 54 88 95
11 12 32 60 65 87
12 26 73 74 78
13 21 37 47 98
14 31 34
15 3 20 51 97
16 48 79
17 16 23 84
18 14 33 58 94 96
19 13 29 81
20 5 50 63
21 36 53
22 9 52 59 90 92
23 2 56 99
24 69 76
25 18 62 83
26 45 85
27 42 57 61 67
28 7 15 72
29 30 66
30 24 100
31 44 86
EOF